c File: flat50_3_0.col
c
c SOURCE: Joseph Culberson (joe@cs.ualberta.ca)
c DESCRIPTION: Quasi-random coloring problem
c              generated with flatness = 0
c                             probability = 0.139
c                             known coloring = 3
c                             random seed = 1227
c              Creation Date:  Tue Jun  9 12:04:13 1998
c Maximum degree = 8 Minimum degree = 1
c p edge 50 115
c cnf created by edge2cnf
p cnf 150 545
-1 -2 0
-1 -3 0
-2 -3 0
1 2 3 0
-4 -5 0
-4 -6 0
-5 -6 0
4 5 6 0
-7 -8 0
-7 -9 0
-8 -9 0
7 8 9 0
-10 -11 0
-10 -12 0
-11 -12 0
10 11 12 0
-13 -14 0
-13 -15 0
-14 -15 0
13 14 15 0
-16 -17 0
-16 -18 0
-17 -18 0
16 17 18 0
-19 -20 0
-19 -21 0
-20 -21 0
19 20 21 0
-22 -23 0
-22 -24 0
-23 -24 0
22 23 24 0
-25 -26 0
-25 -27 0
-26 -27 0
25 26 27 0
-28 -29 0
-28 -30 0
-29 -30 0
28 29 30 0
-31 -32 0
-31 -33 0
-32 -33 0
31 32 33 0
-34 -35 0
-34 -36 0
-35 -36 0
34 35 36 0
-37 -38 0
-37 -39 0
-38 -39 0
37 38 39 0
-40 -41 0
-40 -42 0
-41 -42 0
40 41 42 0
-43 -44 0
-43 -45 0
-44 -45 0
43 44 45 0
-46 -47 0
-46 -48 0
-47 -48 0
46 47 48 0
-49 -50 0
-49 -51 0
-50 -51 0
49 50 51 0
-52 -53 0
-52 -54 0
-53 -54 0
52 53 54 0
-55 -56 0
-55 -57 0
-56 -57 0
55 56 57 0
-58 -59 0
-58 -60 0
-59 -60 0
58 59 60 0
-61 -62 0
-61 -63 0
-62 -63 0
61 62 63 0
-64 -65 0
-64 -66 0
-65 -66 0
64 65 66 0
-67 -68 0
-67 -69 0
-68 -69 0
67 68 69 0
-70 -71 0
-70 -72 0
-71 -72 0
70 71 72 0
-73 -74 0
-73 -75 0
-74 -75 0
73 74 75 0
-76 -77 0
-76 -78 0
-77 -78 0
76 77 78 0
-79 -80 0
-79 -81 0
-80 -81 0
79 80 81 0
-82 -83 0
-82 -84 0
-83 -84 0
82 83 84 0
-85 -86 0
-85 -87 0
-86 -87 0
85 86 87 0
-88 -89 0
-88 -90 0
-89 -90 0
88 89 90 0
-91 -92 0
-91 -93 0
-92 -93 0
91 92 93 0
-94 -95 0
-94 -96 0
-95 -96 0
94 95 96 0
-97 -98 0
-97 -99 0
-98 -99 0
97 98 99 0
-100 -101 0
-100 -102 0
-101 -102 0
100 101 102 0
-103 -104 0
-103 -105 0
-104 -105 0
103 104 105 0
-106 -107 0
-106 -108 0
-107 -108 0
106 107 108 0
-109 -110 0
-109 -111 0
-110 -111 0
109 110 111 0
-112 -113 0
-112 -114 0
-113 -114 0
112 113 114 0
-115 -116 0
-115 -117 0
-116 -117 0
115 116 117 0
-118 -119 0
-118 -120 0
-119 -120 0
118 119 120 0
-121 -122 0
-121 -123 0
-122 -123 0
121 122 123 0
-124 -125 0
-124 -126 0
-125 -126 0
124 125 126 0
-127 -128 0
-127 -129 0
-128 -129 0
127 128 129 0
-130 -131 0
-130 -132 0
-131 -132 0
130 131 132 0
-133 -134 0
-133 -135 0
-134 -135 0
133 134 135 0
-136 -137 0
-136 -138 0
-137 -138 0
136 137 138 0
-139 -140 0
-139 -141 0
-140 -141 0
139 140 141 0
-142 -143 0
-142 -144 0
-143 -144 0
142 143 144 0
-145 -146 0
-145 -147 0
-146 -147 0
145 146 147 0
-148 -149 0
-148 -150 0
-149 -150 0
148 149 150 0
-70 -1 0
-71 -2 0
-72 -3 0
-88 -1 0
-89 -2 0
-90 -3 0
-58 -4 0
-59 -5 0
-60 -6 0
-70 -4 0
-71 -5 0
-72 -6 0
-85 -4 0
-86 -5 0
-87 -6 0
-94 -4 0
-95 -5 0
-96 -6 0
-103 -4 0
-104 -5 0
-105 -6 0
-118 -4 0
-119 -5 0
-120 -6 0
-142 -4 0
-143 -5 0
-144 -6 0
-148 -4 0
-149 -5 0
-150 -6 0
-85 -7 0
-86 -8 0
-87 -9 0
-112 -7 0
-113 -8 0
-114 -9 0
-118 -7 0
-119 -8 0
-120 -9 0
-55 -10 0
-56 -11 0
-57 -12 0
-70 -10 0
-71 -11 0
-72 -12 0
-100 -10 0
-101 -11 0
-102 -12 0
-112 -10 0
-113 -11 0
-114 -12 0
-115 -10 0
-116 -11 0
-117 -12 0
-130 -10 0
-131 -11 0
-132 -12 0
-142 -10 0
-143 -11 0
-144 -12 0
-79 -13 0
-80 -14 0
-81 -15 0
-115 -13 0
-116 -14 0
-117 -15 0
-52 -16 0
-53 -17 0
-54 -18 0
-55 -16 0
-56 -17 0
-57 -18 0
-79 -16 0
-80 -17 0
-81 -18 0
-97 -16 0
-98 -17 0
-99 -18 0
-103 -16 0
-104 -17 0
-105 -18 0
-136 -16 0
-137 -17 0
-138 -18 0
-148 -16 0
-149 -17 0
-150 -18 0
-67 -19 0
-68 -20 0
-69 -21 0
-76 -19 0
-77 -20 0
-78 -21 0
-106 -19 0
-107 -20 0
-108 -21 0
-139 -19 0
-140 -20 0
-141 -21 0
-52 -22 0
-53 -23 0
-54 -24 0
-73 -22 0
-74 -23 0
-75 -24 0
-91 -22 0
-92 -23 0
-93 -24 0
-109 -22 0
-110 -23 0
-111 -24 0
-127 -22 0
-128 -23 0
-129 -24 0
-130 -22 0
-131 -23 0
-132 -24 0
-142 -22 0
-143 -23 0
-144 -24 0
-115 -25 0
-116 -26 0
-117 -27 0
-130 -25 0
-131 -26 0
-132 -27 0
-133 -25 0
-134 -26 0
-135 -27 0
-145 -25 0
-146 -26 0
-147 -27 0
-67 -28 0
-68 -29 0
-69 -30 0
-82 -28 0
-83 -29 0
-84 -30 0
-91 -28 0
-92 -29 0
-93 -30 0
-109 -28 0
-110 -29 0
-111 -30 0
-130 -28 0
-131 -29 0
-132 -30 0
-55 -31 0
-56 -32 0
-57 -33 0
-73 -34 0
-74 -35 0
-75 -36 0
-82 -34 0
-83 -35 0
-84 -36 0
-91 -34 0
-92 -35 0
-93 -36 0
-94 -34 0
-95 -35 0
-96 -36 0
-124 -34 0
-125 -35 0
-126 -36 0
-136 -34 0
-137 -35 0
-138 -36 0
-52 -37 0
-53 -38 0
-54 -39 0
-76 -37 0
-77 -38 0
-78 -39 0
-94 -37 0
-95 -38 0
-96 -39 0
-106 -37 0
-107 -38 0
-108 -39 0
-58 -40 0
-59 -41 0
-60 -42 0
-67 -40 0
-68 -41 0
-69 -42 0
-88 -40 0
-89 -41 0
-90 -42 0
-127 -40 0
-128 -41 0
-129 -42 0
-133 -40 0
-134 -41 0
-135 -42 0
-139 -40 0
-140 -41 0
-141 -42 0
-100 -43 0
-101 -44 0
-102 -45 0
-145 -43 0
-146 -44 0
-147 -45 0
-52 -46 0
-53 -47 0
-54 -48 0
-67 -46 0
-68 -47 0
-69 -48 0
-148 -46 0
-149 -47 0
-150 -48 0
-70 -49 0
-71 -50 0
-72 -51 0
-76 -49 0
-77 -50 0
-78 -51 0
-91 -49 0
-92 -50 0
-93 -51 0
-121 -49 0
-122 -50 0
-123 -51 0
-133 -49 0
-134 -50 0
-135 -51 0
-139 -49 0
-140 -50 0
-141 -51 0
-142 -49 0
-143 -50 0
-144 -51 0
-106 -52 0
-107 -53 0
-108 -54 0
-139 -52 0
-140 -53 0
-141 -54 0
-106 -58 0
-107 -59 0
-108 -60 0
-124 -58 0
-125 -59 0
-126 -60 0
-142 -58 0
-143 -59 0
-144 -60 0
-142 -61 0
-143 -62 0
-144 -63 0
-103 -64 0
-104 -65 0
-105 -66 0
-130 -64 0
-131 -65 0
-132 -66 0
-136 -67 0
-137 -68 0
-138 -69 0
-112 -70 0
-113 -71 0
-114 -72 0
-115 -70 0
-116 -71 0
-117 -72 0
-124 -70 0
-125 -71 0
-126 -72 0
-103 -73 0
-104 -74 0
-105 -75 0
-118 -73 0
-119 -74 0
-120 -75 0
-139 -73 0
-140 -74 0
-141 -75 0
-109 -76 0
-110 -77 0
-111 -78 0
-112 -76 0
-113 -77 0
-114 -78 0
-142 -76 0
-143 -77 0
-144 -78 0
-115 -79 0
-116 -80 0
-117 -81 0
-115 -82 0
-116 -83 0
-117 -84 0
-127 -82 0
-128 -83 0
-129 -84 0
-136 -82 0
-137 -83 0
-138 -84 0
-145 -82 0
-146 -83 0
-147 -84 0
-136 -85 0
-137 -86 0
-138 -87 0
-139 -85 0
-140 -86 0
-141 -87 0
-145 -85 0
-146 -86 0
-147 -87 0
-103 -88 0
-104 -89 0
-105 -90 0
-106 -88 0
-107 -89 0
-108 -90 0
-112 -88 0
-113 -89 0
-114 -90 0
-121 -91 0
-122 -92 0
-123 -93 0
-148 -91 0
-149 -92 0
-150 -93 0
-133 -94 0
-134 -95 0
-135 -96 0
-145 -94 0
-146 -95 0
-147 -96 0
-112 -97 0
-113 -98 0
-114 -99 0
-136 -97 0
-137 -98 0
-138 -99 0
-145 -97 0
-146 -98 0
-147 -99 0
-124 -100 0
-125 -101 0
-126 -102 0
